
Gurobi 9.1.2 (linux64) logging started Thu Aug 10 11:44:39 2023

Changed value of parameter LogFile to max-ls_r=('4', '2').log
   Prev:   Default: 
Changed value of parameter MIPFocus to 1
   Prev: 0  Min: 0  Max: 3  Default: 0
Changed value of parameter Threads to 32
   Prev: 0  Min: 0  Max: 1024  Default: 0
Changed value of parameter TimeLimit to 3600.0
   Prev: inf  Min: 0.0  Max: inf  Default: inf
Warning: variable name "X[('6', '6'),('7', '6')]" has a space
Warning: constraint name "flow-constr-t0-v('6', '3')" has a space
Warning: to let Gurobi read it back, use rlp format
Gurobi Optimizer version 9.1.2 build v9.1.2rc0 (linux64)
Thread count: 16 physical cores, 32 logical processors, using up to 32 threads
Optimize a model with 2931 rows, 2688 columns and 10256 nonzeros
Model fingerprint: 0xd5d4dd83
Variable types: 256 continuous, 2432 integer (2432 binary)
Coefficient statistics:
  Matrix range     [1e+00, 7e+04]
  Objective range  [2e-01, 2e-01]
  Bounds range     [1e+00, 3e+04]
  RHS range        [1e+00, 7e+04]
Presolve removed 407 rows and 416 columns
Presolve time: 0.09s
Presolved: 2524 rows, 2272 columns, 17152 nonzeros
Variable types: 256 continuous, 2016 integer (2016 binary)

Root relaxation: objective 6.400000e+01, 143 iterations, 0.05 seconds

    Nodes    |    Current Node    |     Objective Bounds      |     Work
 Expl Unexpl |  Obj  Depth IntInf | Incumbent    BestBd   Gap | It/Node Time

     0     0   64.00000    0   20          -   64.00000      -     -    0s
H    0     0                      92.0000000   64.00000  30.4%     -    0s
H    0     0                      91.7500000   64.00000  30.2%     -    0s
H    0     0                      77.2083333   64.00000  17.1%     -    0s
     0     0   64.00000    0   50   77.20833   64.00000  17.1%     -    0s
H    0     0                      76.5000000   64.00000  16.3%     -    0s
     0     0   64.00000    0   56   76.50000   64.00000  16.3%     -    0s
H    0     0                      76.0833333   64.00000  15.9%     -    0s
     0     0   64.00000    0   28   76.08333   64.00000  15.9%     -    0s
H    0     0                      75.5833333   64.00000  15.3%     -    0s
     0     0   64.00000    0   35   75.58333   64.00000  15.3%     -    0s
     0     0   64.00000    0   24   75.58333   64.00000  15.3%     -    0s
H    0     0                      73.5833333   64.00000  13.0%     -    0s
     0     0   64.00000    0   32   73.58333   64.00000  13.0%     -    0s
     0     0   64.00000    0   22   73.58333   64.00000  13.0%     -    0s
H    0     0                      71.4166667   64.00000  10.4%     -    0s
     0     0   64.00000    0   24   71.41667   64.00000  10.4%     -    0s
     0     0   64.00000    0   22   71.41667   64.00000  10.4%     -    0s
H    0     0                      70.6666667   64.00000  9.43%     -    1s
H    0     0                      70.1666667   64.00000  8.79%     -    1s
     0     2   64.00000    0   20   70.16667   64.00000  8.79%     -    1s
H    1     4                      69.3333333   64.00000  7.69%   176    1s
H   32    60                      69.2500000   64.00000  7.58%  12.7    2s
H   38    60                      68.2500000   64.00000  6.23%  10.8    2s
H   93   124                      67.5000000   64.00000  5.19%   6.8    3s
H   96   124                      67.0000000   64.00000  4.48%   6.6    3s
H  189   220                      66.0000000   64.00000  3.03%   4.1    5s
H  199   220                      65.9999998   64.00000  3.03%   7.8    5s
H  221   252                      65.9999996   64.00000  3.03%  19.6    6s
H  233   252                      65.9999995   64.00000  3.03%  18.7    6s
  8384  7227   64.00000  142   28   66.00000   64.00000  3.03%   5.8   11s
H 8471  7227                      65.9999991   64.00000  3.03%   5.7   11s
H 8497  6873                      65.0000000   64.00000  1.54%   5.7   12s
  8593  6970   64.00000   15   50   65.00000   64.00000  1.54%   7.4   17s
H 8594  6626                      64.5000000   64.00000  0.78%   7.4   17s
H 8597  6298                      64.4999998   64.00000  0.78%   7.4   17s
H 8605  5985                      64.0000000   64.00000  0.00%   7.4   17s

Cutting planes:
  Learned: 1
  Gomory: 1
  Cover: 36
  Implied bound: 55
  Clique: 37
  MIR: 47
  Flow cover: 49
  Zero half: 1
  RLT: 7
  Relax-and-lift: 82

Explored 8625 nodes (69695 simplex iterations) in 17.10 seconds
Thread count was 32 (of 32 available processors)

Solution count 10: 64 64.5 64.5 ... 68.25

Optimal solution found (tolerance 1.00e-04)
Best objective 6.400000000000e+01, best bound 6.400000000000e+01, gap 0.0000%
